c User generated cnf file
p cnf 6 24
3 1 -2 0 
6 2 -2 0 
1 -5 1 0 
2 -4 1 0 
6 3 -5 0 
3 5 -6 0 
1 -5 3 0 
3 -4 2 0 
5 6 -5 0 
6 -3 4 0 
2 -1 2 0 
2 4 -4 0 
5 -2 1 0 
6 -5 5 0 
6 2 -6 0 
5 3 -6 0 
3 3 -1 0 
5 5 -6 0 
4 2 -5 0 
5 -5 3 0 
2 5 -6 0 
1 -5 2 0 
6 4 -6 0 
3 2 -4 0 
